154704 528 367490 8441049 177176 0.97
156214 423 302070 6928620 176982 0.98
154370 433 202368 4682637 175558 0.96
154902 573 344329 7946797 178624 0.99
154942 447 313785 7174815 176812 0.98
155074 514 310440 7109176 178914 0.97
155332 454 297844 6841250 178850 0.95
153536 544 335003 7713971 179416 0.97
155254 539 291129 6700177 179868 0.97
154304 533 323693 7481907 177576 0.95
